0 18 3 121 120 41 26 2 135 87 5 134 0
0 85 88 4 57 17 19 25 9 32 119 0
0 7 68 78 56 83 136 21 138 6 39 70 0
0 47 29 34 10 1 58 125 31 23 61 0
0 36 53 22 0
0 27 98 86 55 69 79 35 75 99 12 20 0
0 128 118 60 72 71 132 109 104 97 141 45 90 77 91 0
0 140 63 52 139 81 67 144 16 62 46 38 0
